792,64
1055,216
792,64
838,-79
1191,406
1036,350
1055,216
947,364
542,833
606,880
570,748
512,575
196,563
387,555
269,107
570,748
681,766
912,860
741,406
699,349
664,382
646,358
664,382
695,494
702,427
548,474
148,322
510,351
504,378
627,300
898,-21
606,-68
644,169
741,406
761,366
823,360
947,364
1020,160
823,360
533,554
512,575
533,554
548,474
510,351
606,-68
450,-48
627,300
646,358
668,432
702,427
947,599
761,366
699,349
